p wcnf 635 1540
w -2 2.623867 0
w 2 0.381117 0
w -3 0.579241 0
w 3 1.726398 0
w -4 2.655315 0
w 4 0.376603 0
w -6 1.918859 0
w 6 0.521143 0
w -7 2.630094 0
w 7 0.380215 0
w -8 0.587221 0
w 8 1.702936 0
w -9 2.080402 0
w 9 0.480676 0
w -11 0.434360 0
w 11 2.302240 0
w -12 1.986923 0
w 12 0.503291 0
w -13 2.098726 0
w 13 0.476480 0
w -15 0.753024 0
w 15 1.327978 0
w -16 0.709869 0
w 16 1.408710 0
w -17 2.577626 0
w 17 0.387954 0
w -18 0.537078 0
w 18 1.861927 0
w -19 1.232249 0
w 19 0.811525 0
w -21 0.610223 0
w 21 1.638745 0
w -22 2.281227 0
w 22 0.438361 0
w -23 1.678310 0
w 23 0.595837 0
w -24 1.331947 0
w 24 0.750781 0
w -25 0.657316 0
w 25 1.521338 0
w -27 0.559475 0
w 27 1.787390 0
w -28 1.383350 0
w 28 0.722883 0
w -30 1.391599 0
w 30 0.718598 0
w -31 0.479652 0
w 31 2.084844 0
w -33 0.421298 0
w 33 2.373616 0
w -34 2.677097 0
w 34 0.373539 0
w -36 0.474120 0
w 36 2.109170 0
w -37 1.222991 0
w 37 0.817668 0
w -38 0.848423 0
w 38 1.178657 0
w -40 0.612545 0
w 40 1.632534 0
w -41 0.418398 0
w 41 2.390070 0
w -42 0.961981 0
w 42 1.039521 0
w -43 0.646831 0
w 43 1.545999 0
w -45 0.480451 0
w 45 2.081376 0
w -46 1.570534 0
w 46 0.636726 0
w -47 2.499721 0
w 47 0.400045 0
w -49 0.462632 0
w 49 2.161545 0
w -50 0.906258 0
w 50 1.103439 0
w -51 0.380280 0
w 51 2.629641 0
w -53 2.214085 0
w 53 0.451654 0
w -54 1.954665 0
w 54 0.511597 0
w -55 0.742959 0
w 55 1.345970 0
w -56 0.736318 0
w 56 1.358110 0
w -58 0.462976 0
w 58 2.159938 0
w -59 1.785452 0
w 59 0.560082 0
w -60 1.156257 0
w 60 0.864860 0
w -61 0.853705 0
w 61 1.171365 0
w -63 0.646723 0
w 63 1.546256 0
w -64 0.437570 0
w 64 2.285346 0
w -67 0.819093 0
w 67 1.220863 0
w -68 1.640879 0
w 68 0.609429 0
w -69 0.568587 0
w 69 1.758746 0
w -70 1.625038 0
w 70 0.615370 0
w -71 0.650437 0
w 71 1.537428 0
w -72 0.844563 0
w 72 1.184045 0
w -74 0.796991 0
w 74 1.254719 0
w -75 1.628201 0
w 75 0.614175 0
w -76 0.918345 0
w 76 1.088915 0
w -77 0.905071 0
w 77 1.104885 0
w -79 0.380314 0
w 79 2.629408 0
w -80 0.949487 0
w 80 1.053200 0
w -81 0.739069 0
w 81 1.353053 0
w -83 0.662183 0
w 83 1.510156 0
w -85 0.864895 0
w 85 1.156209 0
w -86 1.172506 0
w 86 0.852874 0
w -87 1.073262 0
w 87 0.931739 0
w -88 0.773112 0
w 88 1.293473 0
w -89 0.657187 0
w 89 1.521636 0
w -91 0.534788 0
w 91 1.869899 0
w -92 0.491502 0
w 92 2.034580 0
w -93 0.775154 0
w 93 1.290066 0
w -94 1.760880 0
w 94 0.567898 0
w -96 0.576664 0
w 96 1.734112 0
w -97 2.474281 0
w 97 0.404158 0
w -98 2.271941 0
w 98 0.440152 0
w -100 2.018567 0
w 100 0.495401 0
w -102 2.527356 0
w 102 0.395670 0
w -103 2.134775 0
w 103 0.468433 0
w -105 0.403665 0
w 105 2.477300 0
w -106 0.888027 0
w 106 1.126092 0
w -107 1.389227 0
w 107 0.719825 0
w -108 1.248415 0
w 108 0.801016 0
w -109 2.717093 0
w 109 0.368040 0
w -111 1.541230 0
w 111 0.648833 0
w -112 2.549996 0
w 112 0.392158 0
w -113 1.949177 0
w 113 0.513037 0
w -114 1.111621 0
w 114 0.899588 0
w -115 1.592442 0
w 115 0.627966 0
w -116 0.470187 0
w 116 2.126813 0
w -118 0.597626 0
w 118 1.673288 0
w -120 1.086195 0
w 120 0.920645 0
w -122 1.272090 0
w 122 0.786108 0
w -124 0.727658 0
w 124 1.374272 0
w -125 1.240227 0
w 125 0.806304 0
w -126 0.567032 0
w 126 1.763569 0
w -127 0.426929 0
w 127 2.342309 0
w -128 1.549317 0
w 128 0.645446 0
w -129 0.994998 0
w 129 1.005028 0
w -130 0.398565 0
w 130 2.509001 0
w -132 0.813884 0
w 132 1.228677 0
w -134 2.614259 0
w 134 0.382518 0
w -135 0.732835 0
w 135 1.364564 0
w -136 0.683396 0
w 136 1.463280 0
w -137 0.497663 0
w 137 2.009391 0
w -138 2.380078 0
w 138 0.420154 0
w -140 0.991841 0
w 140 1.008226 0
w -141 1.166805 0
w 141 0.857041 0
w -142 2.661618 0
w 142 0.375711 0
w -143 0.523787 0
w 143 1.909173 0
w -145 1.523802 0
w 145 0.656253 0
w -147 1.849025 0
w 147 0.540826 0
w -148 0.456544 0
w 148 2.190371 0
w -151 1.309200 0
w 151 0.763825 0
w -152 1.459278 0
w 152 0.685271 0
w -153 0.953316 0
w 153 1.048970 0
w -154 1.571734 0
w 154 0.636240 0
w -155 2.313659 0
w 155 0.432216 0
w -157 1.444453 0
w 157 0.692304 0
w -158 1.326723 0
w 158 0.753737 0
w -159 2.341486 0
w 159 0.427079 0
w -160 0.588751 0
w 160 1.698511 0
w -162 2.340507 0
w 162 0.427258 0
w -163 2.685720 0
w 163 0.372340 0
w -164 1.243472 0
w 164 0.804200 0
w -166 0.437645 0
w 166 2.284958 0
w -167 1.163180 0
w 167 0.859712 0
w -168 0.570891 0
w 168 1.751646 0
w -170 0.832524 0
w 170 1.201167 0
w -171 2.619267 0
w 171 0.381786 0
w -172 2.331645 0
w 172 0.428882 0
w -173 0.831545 0
w 173 1.202581 0
w -174 1.828947 0
w 174 0.546763 0
w -176 0.428263 0
w 176 2.335014 0
w -177 0.519660 0
w 177 1.924336 0
w -178 0.459970 0
w 178 2.174057 0
w -179 1.161402 0
w 179 0.861029 0
w -181 0.452238 0
w 181 2.211223 0
w -182 2.594676 0
w 182 0.385405 0
w -183 0.764118 0
w 183 1.308699 0
w -184 1.479588 0
w 184 0.675864 0
w -185 2.453612 0
w 185 0.407562 0
w -187 1.004177 0
w 187 0.995840 0
w -189 0.519223 0
w 189 1.925955 0
w -191 0.536361 0
w 191 1.864416 0
w -192 1.239601 0
w 192 0.806711 0
w -193 0.505499 0
w 193 1.978242 0
w -194 0.386582 0
w 194 2.586773 0
w -196 1.477041 0
w 196 0.677029 0
w -197 1.399444 0
w 197 0.714570 0
w -199 0.650007 0
w 199 1.538445 0
w -201 2.426161 0
w 201 0.412174 0
w -204 1.394908 0
w 204 0.716893 0
w -205 1.064993 0
w 205 0.938973 0
w -207 0.857664 0
w 207 1.165957 0
w -208 0.459517 0
w 208 2.176198 0
w -210 2.287146 0
w 210 0.437226 0
w -211 1.131599 0
w 211 0.883705 0
w -212 0.749824 0
w 212 1.333646 0
w -213 0.505182 0
w 213 1.979484 0
w -215 0.774666 0
w 215 1.290879 0
w -216 1.614787 0
w 216 0.619277 0
w -217 2.549155 0
w 217 0.392287 0
w -219 0.802969 0
w 219 1.245378 0
w -220 1.615386 0
w 220 0.619047 0
w -221 0.471974 0
w 221 2.118761 0
w -222 1.755116 0
w 222 0.569763 0
w -224 0.951499 0
w 224 1.050974 0
w -225 2.323856 0
w 225 0.430319 0
w -226 0.576108 0
w 226 1.735787 0
w -229 1.380761 0
w 229 0.724238 0
w -230 0.622583 0
w 230 1.606212 0
w -231 1.037822 0
w 231 0.963557 0
w -233 2.154994 0
w 233 0.464038 0
w -234 2.191077 0
w 234 0.456397 0
w -235 0.683675 0
w 235 1.462683 0
w -239 1.680237 0
w 239 0.595154 0
w -240 0.940434 0
w 240 1.063339 0
w -242 1.519679 0
w 242 0.658034 0
w -243 1.236731 0
w 243 0.808583 0
w -245 0.543841 0
w 245 1.838773 0
w -246 1.331099 0
w 246 0.751259 0
w -248 2.558056 0
w 248 0.390922 0
w -249 0.402433 0
w 249 2.484885 0
w -250 0.394959 0
w 250 2.531909 0
w -251 0.473662 0
w 251 2.111211 0
w -253 1.571638 0
w 253 0.636279 0
w -254 1.299464 0
w 254 0.769548 0
w -257 1.391703 0
w 257 0.718544 0
w -259 0.442358 0
w 259 2.260612 0
w -260 0.504829 0
w 260 1.980867 0
w -262 1.168102 0
w 262 0.856089 0
w -263 0.773658 0
w 263 1.292561 0
w -265 0.782036 0
w 265 1.278714 0
w -266 2.301959 0
w 266 0.434413 0
w -268 0.498395 0
w 268 2.006441 0
w -269 1.419382 0
w 269 0.704532 0
w -270 0.494778 0
w 270 2.021106 0
w -271 1.541168 0
w 271 0.648859 0
w -274 1.410818 0
w 274 0.708808 0
w -275 0.834671 0
w 275 1.198077 0
w -276 0.665084 0
w 276 1.503570 0
w -277 1.798088 0
w 277 0.556146 0
w -278 0.761776 0
w 278 1.312723 0
w -279 0.853631 0
w 279 1.171466 0
w -280 2.463523 0
w 280 0.405923 0
w -282 0.579269 0
w 282 1.726315 0
w -284 1.222529 0
w 284 0.817977 0
w -286 1.942847 0
w 286 0.514708 0
w -287 0.818985 0
w 287 1.221024 0
w -289 0.958006 0
w 289 1.043835 0
w -290 0.801035 0
w 290 1.248386 0
w -292 0.524731 0
w 292 1.905739 0
w -293 0.462436 0
w 293 2.162463 0
w -294 0.941549 0
w 294 1.062080 0
w -296 0.623846 0
w 296 1.602959 0
w -297 0.574742 0
w 297 1.739911 0
w -298 0.830159 0
w 298 1.204589 0
w -301 0.862575 0
w 301 1.159320 0
w -303 1.700473 0
w 303 0.588072 0
w -304 1.318686 0
w 304 0.758331 0
w -306 1.606718 0
w 306 0.622387 0
w -307 0.869405 0
w 307 1.150212 0
w -308 0.604585 0
w 308 1.654028 0
w -310 0.779437 0
w 310 1.282978 0
w -312 1.699600 0
w 312 0.588374 0
w -313 1.208272 0
w 313 0.827628 0
w -315 0.988622 0
w 315 1.011509 0
w -316 0.427150 0
w 316 2.341099 0
w -318 0.533409 0
w 318 1.874734 0
w -321 0.417992 0
w 321 2.392390 0
w -322 1.349267 0
w 322 0.741143 0
w -323 0.652248 0
w 323 1.533160 0
w -325 2.310886 0
w 325 0.432734 0
w -326 1.424618 0
w 326 0.701942 0
w -328 0.666788 0
w 328 1.499726 0
w -329 1.899389 0
w 329 0.526485 0
w -330 2.643979 0
w 330 0.378218 0
w -331 0.834231 0
w 331 1.198709 0
w -333 1.109975 0
w 333 0.900921 0
w -334 0.498074 0
w 334 2.007732 0
w -336 2.411381 0
w 336 0.414700 0
w -337 1.925011 0
w 337 0.519478 0
w -338 1.820695 0
w 338 0.549241 0
w -340 1.826017 0
w 340 0.547640 0
w -341 2.068997 0
w 341 0.483326 0
w -342 0.378331 0
w 342 2.643185 0
w -345 0.810104 0
w 345 1.234410 0
w -347 2.255910 0
w 347 0.443280 0
w -348 0.954209 0
w 348 1.047989 0
w -350 0.895879 0
w 350 1.116222 0
w -351 0.441457 0
w 351 2.265227 0
w -352 0.681789 0
w 352 1.466729 0
w -353 1.009566 0
w 353 0.990524 0
w -354 1.552936 0
w 354 0.643942 0
w -358 1.163702 0
w 358 0.859326 0
w -359 1.763773 0
w 359 0.566966 0
w -361 2.605378 0
w 361 0.383821 0
w -363 0.751826 0
w 363 1.330094 0
w -365 0.571397 0
w 365 1.750096 0
w -367 0.680433 0
w 367 1.469653 0
w -368 2.263553 0
w 368 0.441783 0
w -369 0.635883 0
w 369 1.572617 0
w -371 1.122716 0
w 371 0.890697 0
w -372 0.873483 0
w 372 1.144842 0
w -373 1.259558 0
w 373 0.793929 0
w -374 0.621019 0
w 374 1.610257 0
w -376 0.382504 0
w 376 2.614350 0
w -377 1.432953 0
w 377 0.697859 0
w -379 0.928813 0
w 379 1.076644 0
w -381 0.368776 0
w 381 2.711677 0
w -383 2.517427 0
w 383 0.397231 0
w -386 1.239399 0
w 386 0.806842 0
w -387 0.884998 0
w 387 1.129946 0
w -389 2.181474 0
w 389 0.458406 0
w -390 1.133988 0
w 390 0.881843 0
w -391 0.460076 0
w 391 2.173556 0
w -393 1.519479 0
w 393 0.658120 0
w -395 0.401163 0
w 395 2.492752 0
w -398 1.864806 0
w 398 0.536249 0
w -399 1.169767 0
w 399 0.854871 0
w -401 0.722961 0
w 401 1.383200 0
w -402 0.722495 0
w 402 1.384092 0
w -403 2.249840 0
w 403 0.444476 0
w -404 0.437946 0
w 404 2.283387 0
w -405 0.862714 0
w 405 1.159133 0
w -408 1.277032 0
w 408 0.783066 0
w -410 2.648407 0
w 410 0.377585 0
w -411 0.628347 0
w 411 1.591478 0
w -414 1.065893 0
w 414 0.938180 0
w -415 2.478384 0
w 415 0.403489 0
w -416 2.444857 0
w 416 0.409022 0
w -417 0.370340 0
w 417 2.700220 0
w -419 2.533761 0
w 419 0.394670 0
w -421 0.981973 0
w 421 1.018358 0
w -423 2.342104 0
w 423 0.426966 0
w -424 0.525565 0
w 424 1.902715 0
w -425 1.096921 0
w 425 0.911643 0
w -426 1.402462 0
w 426 0.713032 0
w -427 0.497796 0
w 427 2.008854 0
w -429 0.595555 0
w 429 1.679105 0
w -430 1.698216 0
w 430 0.588853 0
w -431 0.780774 0
w 431 1.280780 0
w -434 1.489754 0
w 434 0.671252 0
w -436 0.448077 0
w 436 2.231759 0
w -439 0.486676 0
w 439 2.054754 0
w -441 1.860403 0
w 441 0.537518 0
w -442 0.776657 0
w 442 1.287570 0
w -444 0.509256 0
w 444 1.963651 0
w -447 1.191689 0
w 447 0.839145 0
w -451 0.770533 0
w 451 1.297802 0
w -453 1.811770 0
w 453 0.551946 0
w -455 0.607902 0
w 455 1.645003 0
w -460 0.595914 0
w 460 1.678096 0
w -461 1.249784 0
w 461 0.800138 0
w -462 0.558190 0
w 462 1.791506 0
w -464 1.342218 0
w 464 0.745035 0
w -465 2.029841 0
w 465 0.492649 0
w -466 0.377908 0
w 466 2.646148 0
w -469 1.845255 0
w 469 0.541930 0
w -470 1.613948 0
w 470 0.619599 0
w -471 0.379291 0
w 471 2.636500 0
w -473 0.518278 0
w 473 1.929467 0
w -476 1.859848 0
w 476 0.537678 0
w -477 1.604571 0
w 477 0.623220 0
w -478 1.460908 0
w 478 0.684506 0
w -480 0.512007 0
w 480 1.953098 0
w -481 1.735278 0
w 481 0.576276 0
w -482 1.253216 0
w 482 0.797947 0
w -485 2.158681 0
w 485 0.463246 0
w -487 0.640702 0
w 487 1.560789 0
w -489 2.079185 0
w 489 0.480958 0
w -490 1.376298 0
w 490 0.726587 0
w -491 0.903430 0
w 491 1.106892 0
w -492 0.680163 0
w 492 1.470235 0
w -494 1.781467 0
w 494 0.561335 0
w -497 1.161577 0
w 497 0.860899 0
w -498 0.537491 0
w 498 1.860496 0
w -499 0.654403 0
w 499 1.528111 0
w -500 2.137229 0
w 500 0.467896 0
w -501 1.624431 0
w 501 0.615600 0
w -503 2.686783 0
w 503 0.372192 0
w -507 1.314644 0
w 507 0.760662 0
w -508 0.655951 0
w 508 1.524503 0
w -510 2.535214 0
w 510 0.394444 0
w -511 0.768996 0
w 511 1.300397 0
w -513 2.293988 0
w 513 0.435922 0
w -515 1.236744 0
w 515 0.808575 0
w -517 0.411034 0
w 517 2.432890 0
w -520 1.905953 0
w 520 0.524672 0
w -521 2.662110 0
w 521 0.375642 0
w -523 1.045939 0
w 523 0.956078 0
w -524 0.868233 0
w 524 1.151765 0
w -525 0.667914 0
w 525 1.497200 0
w -527 0.475720 0
w 527 2.102075 0
w -528 0.969801 0
w 528 1.031139 0
w -529 0.896419 0
w 529 1.115550 0
w -532 1.176382 0
w 532 0.850064 0
w -534 0.605274 0
w 534 1.652144 0
w -535 0.525943 0
w 535 1.901347 0
w -536 1.805624 0
w 536 0.553825 0
w -539 0.732879 0
w 539 1.364482 0
w -540 1.130180 0
w 540 0.884815 0
w -542 0.401791 0
w 542 2.488858 0
w -544 1.007598 0
w 544 0.992459 0
w -545 1.130881 0
w 545 0.884267 0
w -547 2.658949 0
w 547 0.376088 0
w -552 2.515802 0
w 552 0.397488 0
w -555 0.976018 0
w 555 1.024571 0
w -557 1.907937 0
w 557 0.524126 0
w -560 1.033364 0
w 560 0.967714 0
w -563 1.199927 0
w 563 0.833384 0
w -564 0.580747 0
w 564 1.721920 0
w -567 1.168339 0
w 567 0.855916 0
w -571 0.610691 0
w 571 1.637489 0
w -580 1.329566 0
w 580 0.752125 0
w -581 0.499325 0
w 581 2.002703 0
w -586 1.247552 0
w 586 0.801570 0
w -588 2.584175 0
w 588 0.386971 0
w -590 1.836498 0
w 590 0.544515 0
w -592 1.699684 0
w 592 0.588345 0
w -593 1.892505 0
w 593 0.528400 0
w -594 1.879759 0
w 594 0.531983 0
w -601 2.481469 0
w 601 0.402987 0
w -614 0.566489 0
w 614 1.765259 0
w -620 2.673407 0
w 620 0.374054 0
2 1 392 0
2 -1 -392 0
-2 1 -392 0
-2 -1 392 0
3 1 448 0
3 -1 -448 0
-3 1 -448 0
-3 -1 448 0
4 1 537 0
4 -1 -537 0
-4 1 -537 0
-4 -1 537 0
6 5 180 0
6 -5 -180 0
-6 5 -180 0
-6 -5 180 0
7 5 188 0
7 -5 -188 0
-7 5 -188 0
-7 -5 188 0
8 5 509 0
8 -5 -509 0
-8 5 -509 0
-8 -5 509 0
9 5 572 0
9 -5 -572 0
-9 5 -572 0
-9 -5 572 0
11 10 44 0
11 -10 -44 0
-11 10 -44 0
-11 -10 44 0
12 10 541 0
12 -10 -541 0
-12 10 -541 0
-12 -10 541 0
13 10 589 0
13 -10 -589 0
-13 10 -589 0
-13 -10 589 0
15 14 283 0
15 -14 -283 0
-15 14 -283 0
-15 -14 283 0
16 14 305 0
16 -14 -305 0
-16 14 -305 0
-16 -14 305 0
17 14 364 0
17 -14 -364 0
-17 14 -364 0
-17 -14 364 0
18 14 566 0
18 -14 -566 0
-18 14 -566 0
-18 -14 566 0
19 14 627 0
19 -14 -627 0
-19 14 -627 0
-19 -14 627 0
21 20 84 0
21 -20 -84 0
-21 20 -84 0
-21 -20 84 0
22 20 232 0
22 -20 -232 0
-22 20 -232 0
-22 -20 232 0
23 20 244 0
23 -20 -244 0
-23 20 -244 0
-23 -20 244 0
24 20 343 0
24 -20 -343 0
-24 20 -343 0
-24 -20 343 0
25 20 370 0
25 -20 -370 0
-25 20 -370 0
-25 -20 370 0
27 26 198 0
27 -26 -198 0
-27 26 -198 0
-27 -26 198 0
28 26 228 0
28 -26 -228 0
-28 26 -228 0
-28 -26 228 0
30 29 237 0
30 -29 -237 0
-30 29 -237 0
-30 -29 237 0
31 29 546 0
31 -29 -546 0
-31 29 -546 0
-31 -29 546 0
33 32 531 0
33 -32 -531 0
-33 32 -531 0
-33 -32 531 0
34 32 538 0
34 -32 -538 0
-34 32 -538 0
-34 -32 538 0
36 35 110 0
36 -35 -110 0
-36 35 -110 0
-36 -35 110 0
37 35 445 0
37 -35 -445 0
-37 35 -445 0
-37 -35 445 0
38 35 589 0
38 -35 -589 0
-38 35 -589 0
-38 -35 589 0
40 39 493 0
40 -39 -493 0
-40 39 -493 0
-40 -39 493 0
41 39 577 0
41 -39 -577 0
-41 39 -577 0
-41 -39 577 0
42 39 587 0
42 -39 -587 0
-42 39 -587 0
-42 -39 587 0
43 39 624 0
43 -39 -624 0
-43 39 -624 0
-43 -39 624 0
45 44 161 0
45 -44 -161 0
-45 44 -161 0
-45 -44 161 0
46 44 299 0
46 -44 -299 0
-46 44 -299 0
-46 -44 299 0
47 44 302 0
47 -44 -302 0
-47 44 -302 0
-47 -44 302 0
49 48 169 0
49 -48 -169 0
-49 48 -169 0
-49 -48 169 0
50 48 319 0
50 -48 -319 0
-50 48 -319 0
-50 -48 319 0
51 48 413 0
51 -48 -413 0
-51 48 -413 0
-51 -48 413 0
53 52 99 0
53 -52 -99 0
-53 52 -99 0
-53 -52 99 0
54 52 195 0
54 -52 -195 0
-54 52 -195 0
-54 -52 195 0
55 52 214 0
55 -52 -214 0
-55 52 -214 0
-55 -52 214 0
56 52 562 0
56 -52 -562 0
-56 52 -562 0
-56 -52 562 0
58 57 149 0
58 -57 -149 0
-58 57 -149 0
-58 -57 149 0
59 57 448 0
59 -57 -448 0
-59 57 -448 0
-59 -57 448 0
60 57 533 0
60 -57 -533 0
-60 57 -533 0
-60 -57 533 0
61 57 573 0
61 -57 -573 0
-61 57 -573 0
-61 -57 573 0
63 62 133 0
63 -62 -133 0
-63 62 -133 0
-63 -62 133 0
64 62 576 0
64 -62 -576 0
-64 62 -576 0
-64 -62 576 0
67 66 195 0
67 -66 -195 0
-67 66 -195 0
-67 -66 195 0
68 66 244 0
68 -66 -244 0
-68 66 -244 0
-68 -66 244 0
69 66 413 0
69 -66 -413 0
-69 66 -413 0
-69 -66 413 0
70 66 443 0
70 -66 -443 0
-70 66 -443 0
-70 -66 443 0
71 66 449 0
71 -66 -449 0
-71 66 -449 0
-71 -66 449 0
72 66 627 0
72 -66 -627 0
-72 66 -627 0
-72 -66 627 0
74 73 175 0
74 -73 -175 0
-74 73 -175 0
-74 -73 175 0
75 73 261 0
75 -73 -261 0
-75 73 -261 0
-75 -73 261 0
76 73 413 0
76 -73 -413 0
-76 73 -413 0
-76 -73 413 0
77 73 458 0
77 -73 -458 0
-77 73 -458 0
-77 -73 458 0
79 78 295 0
79 -78 -295 0
-79 78 -295 0
-79 -78 295 0
80 78 385 0
80 -78 -385 0
-80 78 -385 0
-80 -78 385 0
81 78 566 0
81 -78 -566 0
-81 78 -566 0
-81 -78 566 0
83 82 587 0
83 -82 -587 0
-83 82 -587 0
-83 -82 587 0
85 84 302 0
85 -84 -302 0
-85 84 -302 0
-85 -84 302 0
86 84 364 0
86 -84 -364 0
-86 84 -364 0
-86 -84 364 0
87 84 418 0
87 -84 -418 0
-87 84 -418 0
-87 -84 418 0
88 84 582 0
88 -84 -582 0
-88 84 -582 0
-88 -84 582 0
89 84 595 0
89 -84 -595 0
-89 84 -595 0
-89 -84 595 0
91 90 150 0
91 -90 -150 0
-91 90 -150 0
-91 -90 150 0
92 90 364 0
92 -90 -364 0
-92 90 -364 0
-92 -90 364 0
93 90 384 0
93 -90 -384 0
-93 90 -384 0
-93 -90 384 0
94 90 546 0
94 -90 -546 0
-94 90 -546 0
-94 -90 546 0
96 95 218 0
96 -95 -218 0
-96 95 -218 0
-96 -95 218 0
97 95 311 0
97 -95 -311 0
-97 95 -311 0
-97 -95 311 0
98 95 541 0
98 -95 -541 0
-98 95 -541 0
-98 -95 541 0
100 99 479 0
100 -99 -479 0
-100 99 -479 0
-100 -99 479 0
102 101 346 0
102 -101 -346 0
-102 101 -346 0
-102 -101 346 0
103 101 538 0
103 -101 -538 0
-103 101 -538 0
-103 -101 538 0
105 104 273 0
105 -104 -273 0
-105 104 -273 0
-105 -104 273 0
106 104 378 0
106 -104 -378 0
-106 104 -378 0
-106 -104 378 0
107 104 454 0
107 -104 -454 0
-107 104 -454 0
-107 -104 454 0
108 104 616 0
108 -104 -616 0
-108 104 -616 0
-108 -104 616 0
109 104 634 0
109 -104 -634 0
-109 104 -634 0
-109 -104 634 0
111 110 149 0
111 -110 -149 0
-111 110 -149 0
-111 -110 149 0
112 110 362 0
112 -110 -362 0
-112 110 -362 0
-112 -110 362 0
113 110 366 0
113 -110 -366 0
-113 110 -366 0
-113 -110 366 0
114 110 370 0
114 -110 -370 0
-114 110 -370 0
-114 -110 370 0
115 110 437 0
115 -110 -437 0
-115 110 -437 0
-115 -110 437 0
116 110 512 0
116 -110 -512 0
-116 110 -512 0
-116 -110 512 0
118 117 502 0
118 -117 -502 0
-118 117 -502 0
-118 -117 502 0
120 119 223 0
120 -119 -223 0
-120 119 -223 0
-120 -119 223 0
122 121 472 0
122 -121 -472 0
-122 121 -472 0
-122 -121 472 0
124 123 360 0
124 -123 -360 0
-124 123 -360 0
-124 -123 360 0
125 123 483 0
125 -123 -483 0
-125 123 -483 0
-125 -123 483 0
126 123 570 0
126 -123 -570 0
-126 123 -570 0
-126 -123 570 0
127 123 576 0
127 -123 -576 0
-127 123 -576 0
-127 -123 576 0
128 123 579 0
128 -123 -579 0
-128 123 -579 0
-128 -123 579 0
129 123 606 0
129 -123 -606 0
-129 123 -606 0
-129 -123 606 0
130 123 615 0
130 -123 -615 0
-130 123 -615 0
-130 -123 615 0
132 131 569 0
132 -131 -569 0
-132 131 -569 0
-132 -131 569 0
134 133 146 0
134 -133 -146 0
-134 133 -146 0
-134 -133 146 0
135 133 505 0
135 -133 -505 0
-135 133 -505 0
-135 -133 505 0
136 133 569 0
136 -133 -569 0
-136 133 -569 0
-136 -133 569 0
137 133 615 0
137 -133 -615 0
-137 133 -615 0
-137 -133 615 0
138 133 626 0
138 -133 -626 0
-138 133 -626 0
-138 -133 626 0
140 139 255 0
140 -139 -255 0
-140 139 -255 0
-140 -139 255 0
141 139 438 0
141 -139 -438 0
-141 139 -438 0
-141 -139 438 0
142 139 546 0
142 -139 -546 0
-142 139 -546 0
-142 -139 546 0
143 139 583 0
143 -139 -583 0
-143 139 -583 0
-143 -139 583 0
145 144 241 0
145 -144 -241 0
-145 144 -241 0
-145 -144 241 0
147 146 382 0
147 -146 -382 0
-147 146 -382 0
-147 -146 382 0
148 146 526 0
148 -146 -526 0
-148 146 -526 0
-148 -146 526 0
151 150 218 0
151 -150 -218 0
-151 150 -218 0
-151 -150 218 0
152 150 272 0
152 -150 -272 0
-152 150 -272 0
-152 -150 272 0
153 150 514 0
153 -150 -514 0
-153 150 -514 0
-153 -150 514 0
154 150 549 0
154 -150 -549 0
-154 150 -549 0
-154 -150 549 0
155 150 616 0
155 -150 -616 0
-155 150 -616 0
-155 -150 616 0
157 156 475 0
157 -156 -475 0
-157 156 -475 0
-157 -156 475 0
158 156 509 0
158 -156 -509 0
-158 156 -509 0
-158 -156 509 0
159 156 625 0
159 -156 -625 0
-159 156 -625 0
-159 -156 625 0
160 156 634 0
160 -156 -634 0
-160 156 -634 0
-160 -156 634 0
162 161 319 0
162 -161 -319 0
-162 161 -319 0
-162 -161 319 0
163 161 488 0
163 -161 -488 0
-163 161 -488 0
-163 -161 488 0
164 161 551 0
164 -161 -551 0
-164 161 -551 0
-164 -161 551 0
166 165 357 0
166 -165 -357 0
-166 165 -357 0
-166 -165 357 0
167 165 406 0
167 -165 -406 0
-167 165 -406 0
-167 -165 406 0
168 165 561 0
168 -165 -561 0
-168 165 -561 0
-168 -165 561 0
170 169 357 0
170 -169 -357 0
-170 169 -357 0
-170 -169 357 0
171 169 443 0
171 -169 -443 0
-171 169 -443 0
-171 -169 443 0
172 169 518 0
172 -169 -518 0
-172 169 -518 0
-172 -169 518 0
173 169 589 0
173 -169 -589 0
-173 169 -589 0
-173 -169 589 0
174 169 623 0
174 -169 -623 0
-174 169 -623 0
-174 -169 623 0
176 175 202 0
176 -175 -202 0
-176 175 -202 0
-176 -175 202 0
177 175 214 0
177 -175 -214 0
-177 175 -214 0
-177 -175 214 0
178 175 285 0
178 -175 -285 0
-178 175 -285 0
-178 -175 285 0
179 175 366 0
179 -175 -366 0
-179 175 -366 0
-179 -175 366 0
181 180 252 0
181 -180 -252 0
-181 180 -252 0
-181 -180 252 0
182 180 324 0
182 -180 -324 0
-182 180 -324 0
-182 -180 324 0
183 180 449 0
183 -180 -449 0
-183 180 -449 0
-183 -180 449 0
184 180 574 0
184 -180 -574 0
-184 180 -574 0
-184 -180 574 0
185 180 591 0
185 -180 -591 0
-185 180 -591 0
-185 -180 591 0
187 186 438 0
187 -186 -438 0
-187 186 -438 0
-187 -186 438 0
189 188 228 0
189 -188 -228 0
-189 188 -228 0
-189 -188 228 0
191 190 384 0
191 -190 -384 0
-191 190 -384 0
-191 -190 384 0
192 190 407 0
192 -190 -407 0
-192 190 -407 0
-192 -190 407 0
193 190 582 0
193 -190 -582 0
-193 190 -582 0
-193 -190 582 0
194 190 626 0
194 -190 -626 0
-194 190 -626 0
-194 -190 626 0
196 195 261 0
196 -195 -261 0
-196 195 -261 0
-196 -195 261 0
197 195 533 0
197 -195 -533 0
-197 195 -533 0
-197 -195 533 0
199 198 433 0
199 -198 -433 0
-199 198 -433 0
-199 -198 433 0
201 200 362 0
201 -200 -362 0
-201 200 -362 0
-201 -200 362 0
204 203 475 0
204 -203 -475 0
-204 203 -475 0
-204 -203 475 0
205 203 554 0
205 -203 -554 0
-205 203 -554 0
-205 -203 554 0
207 206 288 0
207 -206 -288 0
-207 206 -288 0
-207 -206 288 0
208 206 587 0
208 -206 -587 0
-208 206 -587 0
-208 -206 587 0
210 209 396 0
210 -209 -396 0
-210 209 -396 0
-210 -209 396 0
211 209 422 0
211 -209 -422 0
-211 209 -422 0
-211 -209 422 0
212 209 541 0
212 -209 -541 0
-212 209 -541 0
-212 -209 541 0
213 209 562 0
213 -209 -562 0
-213 209 -562 0
-213 -209 562 0
215 214 546 0
215 -214 -546 0
-215 214 -546 0
-215 -214 546 0
216 214 551 0
216 -214 -551 0
-216 214 -551 0
-216 -214 551 0
217 214 623 0
217 -214 -623 0
-217 214 -623 0
-217 -214 623 0
219 218 299 0
219 -218 -299 0
-219 218 -299 0
-219 -218 299 0
220 218 450 0
220 -218 -450 0
-220 218 -450 0
-220 -218 450 0
221 218 559 0
221 -218 -559 0
-221 218 -559 0
-221 -218 559 0
222 218 573 0
222 -218 -573 0
-222 218 -573 0
-222 -218 573 0
224 223 255 0
224 -223 -255 0
-224 223 -255 0
-224 -223 255 0
225 223 382 0
225 -223 -382 0
-225 223 -382 0
-225 -223 382 0
226 223 626 0
226 -223 -626 0
-226 223 -626 0
-226 -223 626 0
229 228 475 0
229 -228 -475 0
-229 228 -475 0
-229 -228 475 0
230 228 543 0
230 -228 -543 0
-230 228 -543 0
-230 -228 543 0
231 228 576 0
231 -228 -576 0
-231 228 -576 0
-231 -228 576 0
233 232 324 0
233 -232 -324 0
-233 232 -324 0
-233 -232 324 0
234 232 484 0
234 -232 -484 0
-234 232 -484 0
-234 -232 484 0
235 232 537 0
235 -232 -537 0
-235 232 -537 0
-235 -232 537 0
239 238 244 0
239 -238 -244 0
-239 238 -244 0
-239 -238 244 0
240 238 432 0
240 -238 -432 0
-240 238 -432 0
-240 -238 432 0
242 241 300 0
242 -241 -300 0
-242 241 -300 0
-242 -241 300 0
243 241 456 0
243 -241 -456 0
-243 241 -456 0
-243 -241 456 0
245 244 472 0
245 -244 -472 0
-245 244 -472 0
-245 -244 472 0
246 244 496 0
246 -244 -496 0
-246 244 -496 0
-246 -244 496 0
248 247 305 0
248 -247 -305 0
-248 247 -305 0
-248 -247 305 0
249 247 409 0
249 -247 -409 0
-249 247 -409 0
-249 -247 409 0
250 247 420 0
250 -247 -420 0
-250 247 -420 0
-250 -247 420 0
251 247 577 0
251 -247 -577 0
-251 247 -577 0
-251 -247 577 0
253 252 272 0
253 -252 -272 0
-253 252 -272 0
-253 -252 272 0
254 252 320 0
254 -252 -320 0
-254 252 -320 0
-254 -252 320 0
257 256 559 0
257 -256 -559 0
-257 256 -559 0
-257 -256 559 0
259 258 569 0
259 -258 -569 0
-259 258 -569 0
-259 -258 569 0
260 258 613 0
260 -258 -613 0
-260 258 -613 0
-260 -258 613 0
262 261 468 0
262 -261 -468 0
-262 261 -468 0
-262 -261 468 0
263 261 603 0
263 -261 -603 0
-263 261 -603 0
-263 -261 603 0
265 264 317 0
265 -264 -317 0
-265 264 -317 0
-265 -264 317 0
266 264 603 0
266 -264 -603 0
-266 264 -603 0
-266 -264 603 0
268 267 300 0
268 -267 -300 0
-268 267 -300 0
-268 -267 300 0
269 267 332 0
269 -267 -332 0
-269 267 -332 0
-269 -267 332 0
270 267 357 0
270 -267 -357 0
-270 267 -357 0
-270 -267 357 0
271 267 610 0
271 -267 -610 0
-271 267 -610 0
-271 -267 610 0
274 273 327 0
274 -273 -327 0
-274 273 -327 0
-274 -273 327 0
275 273 384 0
275 -273 -384 0
-275 273 -384 0
-275 -273 384 0
276 273 526 0
276 -273 -526 0
-276 273 -526 0
-276 -273 526 0
277 273 550 0
277 -273 -550 0
-277 273 -550 0
-277 -273 550 0
278 273 558 0
278 -273 -558 0
-278 273 -558 0
-278 -273 558 0
279 273 569 0
279 -273 -569 0
-279 273 -569 0
-279 -273 569 0
280 273 602 0
280 -273 -602 0
-280 273 -602 0
-280 -273 602 0
282 281 606 0
282 -281 -606 0
-282 281 -606 0
-282 -281 606 0
284 283 400 0
284 -283 -400 0
-284 283 -400 0
-284 -283 400 0
286 285 344 0
286 -285 -344 0
-286 285 -344 0
-286 -285 344 0
287 285 633 0
287 -285 -633 0
-287 285 -633 0
-287 -285 633 0
289 288 558 0
289 -288 -558 0
-289 288 -558 0
-289 -288 558 0
290 288 589 0
290 -288 -589 0
-290 288 -589 0
-290 -288 589 0
292 291 355 0
292 -291 -355 0
-292 291 -355 0
-292 -291 355 0
293 291 474 0
293 -291 -474 0
-293 291 -474 0
-293 -291 474 0
294 291 591 0
294 -291 -591 0
-294 291 -591 0
-294 -291 591 0
296 295 343 0
296 -295 -343 0
-296 295 -343 0
-296 -295 343 0
297 295 420 0
297 -295 -420 0
-297 295 -420 0
-297 -295 420 0
298 295 463 0
298 -295 -463 0
-298 295 -463 0
-298 -295 463 0
301 300 554 0
301 -300 -554 0
-301 300 -554 0
-301 -300 554 0
303 302 449 0
303 -302 -449 0
-303 302 -449 0
-303 -302 449 0
304 302 621 0
304 -302 -621 0
-304 302 -621 0
-304 -302 621 0
306 305 450 0
306 -305 -450 0
-306 305 -450 0
-306 -305 450 0
307 305 631 0
307 -305 -631 0
-307 305 -631 0
-307 -305 631 0
308 305 634 0
308 -305 -634 0
-308 305 -634 0
-308 -305 634 0
310 309 412 0
310 -309 -412 0
-310 309 -412 0
-310 -309 412 0
312 311 551 0
312 -311 -551 0
-312 311 -551 0
-312 -311 551 0
313 311 622 0
313 -311 -622 0
-313 311 -622 0
-313 -311 622 0
315 314 378 0
315 -314 -378 0
-315 314 -378 0
-315 -314 378 0
316 314 388 0
316 -314 -388 0
-316 314 -388 0
-316 -314 388 0
318 317 518 0
318 -317 -518 0
-318 317 -518 0
-318 -317 518 0
321 320 553 0
321 -320 -553 0
-321 320 -553 0
-321 -320 553 0
322 320 562 0
322 -320 -562 0
-322 320 -562 0
-322 -320 562 0
323 320 624 0
323 -320 -624 0
-323 320 -624 0
-323 -320 624 0
325 324 412 0
325 -324 -412 0
-325 324 -412 0
-325 -324 412 0
326 324 602 0
326 -324 -602 0
-326 324 -602 0
-326 -324 602 0
328 327 435 0
328 -327 -435 0
-328 327 -435 0
-328 -327 435 0
329 327 553 0
329 -327 -553 0
-329 327 -553 0
-329 -327 553 0
330 327 582 0
330 -327 -582 0
-330 327 -582 0
-330 -327 582 0
331 327 596 0
331 -327 -596 0
-331 327 -596 0
-331 -327 596 0
333 332 530 0
333 -332 -530 0
-333 332 -530 0
-333 -332 530 0
334 332 576 0
334 -332 -576 0
-334 332 -576 0
-334 -332 576 0
336 335 370 0
336 -335 -370 0
-336 335 -370 0
-336 -335 370 0
337 335 550 0
337 -335 -550 0
-337 335 -550 0
-337 -335 550 0
338 335 607 0
338 -335 -607 0
-338 335 -607 0
-338 -335 607 0
340 339 349 0
340 -339 -349 0
-340 339 -349 0
-340 -339 349 0
341 339 565 0
341 -339 -565 0
-341 339 -565 0
-341 -339 565 0
342 339 628 0
342 -339 -628 0
-342 339 -628 0
-342 -339 628 0
345 344 585 0
345 -344 -585 0
-345 344 -585 0
-345 -344 585 0
347 346 519 0
347 -346 -519 0
-347 346 -519 0
-347 -346 519 0
348 346 550 0
348 -346 -550 0
-348 346 -550 0
-348 -346 550 0
350 349 375 0
350 -349 -375 0
-350 349 -375 0
-350 -349 375 0
351 349 422 0
351 -349 -422 0
-351 349 -422 0
-351 -349 422 0
352 349 437 0
352 -349 -437 0
-352 349 -437 0
-352 -349 437 0
353 349 448 0
353 -349 -448 0
-353 349 -448 0
-353 -349 448 0
354 349 604 0
354 -349 -604 0
-354 349 -604 0
-354 -349 604 0
358 357 514 0
358 -357 -514 0
-358 357 -514 0
-358 -357 514 0
359 357 611 0
359 -357 -611 0
-359 357 -611 0
-359 -357 611 0
361 360 522 0
361 -360 -522 0
-361 360 -522 0
-361 -360 522 0
363 362 495 0
363 -362 -495 0
-363 362 -495 0
-363 -362 495 0
365 364 609 0
365 -364 -609 0
-365 364 -609 0
-365 -364 609 0
367 366 380 0
367 -366 -380 0
-367 366 -380 0
-367 -366 380 0
368 366 435 0
368 -366 -435 0
-368 366 -435 0
-368 -366 435 0
369 366 463 0
369 -366 -463 0
-369 366 -463 0
-369 -366 463 0
371 370 435 0
371 -370 -435 0
-371 370 -435 0
-371 -370 435 0
372 370 454 0
372 -370 -454 0
-372 370 -454 0
-372 -370 454 0
373 370 541 0
373 -370 -541 0
-373 370 -541 0
-373 -370 541 0
374 370 634 0
374 -370 -634 0
-374 370 -634 0
-374 -370 634 0
376 375 566 0
376 -375 -566 0
-376 375 -566 0
-376 -375 566 0
377 375 583 0
377 -375 -583 0
-377 375 -583 0
-377 -375 583 0
379 378 468 0
379 -378 -468 0
-379 378 -468 0
-379 -378 468 0
381 380 406 0
381 -380 -406 0
-381 380 -406 0
-381 -380 406 0
383 382 583 0
383 -382 -583 0
-383 382 -583 0
-383 -382 583 0
386 385 551 0
386 -385 -551 0
-386 385 -551 0
-386 -385 551 0
387 385 572 0
387 -385 -572 0
-387 385 -572 0
-387 -385 572 0
389 388 435 0
389 -388 -435 0
-389 388 -435 0
-389 -388 435 0
390 388 506 0
390 -388 -506 0
-390 388 -506 0
-390 -388 506 0
391 388 583 0
391 -388 -583 0
-391 388 -583 0
-391 -388 583 0
393 392 422 0
393 -392 -422 0
-393 392 -422 0
-393 -392 422 0
395 394 486 0
395 -394 -486 0
-395 394 -486 0
-395 -394 486 0
398 397 598 0
398 -397 -598 0
-398 397 -598 0
-398 -397 598 0
399 397 603 0
399 -397 -603 0
-399 397 -603 0
-399 -397 603 0
401 400 420 0
401 -400 -420 0
-401 400 -420 0
-401 -400 420 0
402 400 422 0
402 -400 -422 0
-402 400 -422 0
-402 -400 422 0
403 400 459 0
403 -400 -459 0
-403 400 -459 0
-403 -400 459 0
404 400 516 0
404 -400 -516 0
-404 400 -516 0
-404 -400 516 0
405 400 522 0
405 -400 -522 0
-405 400 -522 0
-405 -400 522 0
408 407 518 0
408 -407 -518 0
-408 407 -518 0
-408 -407 518 0
410 409 575 0
410 -409 -575 0
-410 409 -575 0
-410 -409 575 0
411 409 583 0
411 -409 -583 0
-411 409 -583 0
-411 -409 583 0
414 413 437 0
414 -413 -437 0
-414 413 -437 0
-414 -413 437 0
415 413 446 0
415 -413 -446 0
-415 413 -446 0
-415 -413 446 0
416 413 533 0
416 -413 -533 0
-416 413 -533 0
-416 -413 533 0
417 413 609 0
417 -413 -609 0
-417 413 -609 0
-417 -413 609 0
419 418 549 0
419 -418 -549 0
-419 418 -549 0
-419 -418 549 0
421 420 622 0
421 -420 -622 0
-421 420 -622 0
-421 -420 622 0
423 422 450 0
423 -422 -450 0
-423 422 -450 0
-423 -422 450 0
424 422 548 0
424 -422 -548 0
-424 422 -548 0
-424 -422 548 0
425 422 579 0
425 -422 -579 0
-425 422 -579 0
-425 -422 579 0
426 422 595 0
426 -422 -595 0
-426 422 -595 0
-426 -422 595 0
427 422 617 0
427 -422 -617 0
-427 422 -617 0
-427 -422 617 0
429 428 440 0
429 -428 -440 0
-429 428 -440 0
-429 -428 440 0
430 428 468 0
430 -428 -468 0
-430 428 -468 0
-430 -428 468 0
431 428 530 0
431 -428 -530 0
-431 428 -530 0
-431 -428 530 0
434 433 467 0
434 -433 -467 0
-434 433 -467 0
-434 -433 467 0
436 435 526 0
436 -435 -526 0
-436 435 -526 0
-436 -435 526 0
439 438 484 0
439 -438 -484 0
-439 438 -484 0
-439 -438 484 0
441 440 493 0
441 -440 -493 0
-441 440 -493 0
-441 -440 493 0
442 440 612 0
442 -440 -612 0
-442 440 -612 0
-442 -440 612 0
444 443 622 0
444 -443 -622 0
-444 443 -622 0
-444 -443 622 0
447 446 484 0
447 -446 -484 0
-447 446 -484 0
-447 -446 484 0
451 450 577 0
451 -450 -577 0
-451 450 -577 0
-451 -450 577 0
453 452 583 0
453 -452 -583 0
-453 452 -583 0
-453 -452 583 0
455 454 634 0
455 -454 -634 0
-455 454 -634 0
-455 -454 634 0
460 459 537 0
460 -459 -537 0
-460 459 -537 0
-460 -459 537 0
461 459 577 0
461 -459 -577 0
-461 459 -577 0
-461 -459 577 0
462 459 622 0
462 -459 -622 0
-462 459 -622 0
-462 -459 622 0
464 463 479 0
464 -463 -479 0
-464 463 -479 0
-464 -463 479 0
465 463 572 0
465 -463 -572 0
-465 463 -572 0
-465 -463 572 0
466 463 632 0
466 -463 -632 0
-466 463 -632 0
-466 -463 632 0
469 468 483 0
469 -468 -483 0
-469 468 -483 0
-469 -468 483 0
470 468 538 0
470 -468 -538 0
-470 468 -538 0
-470 -468 538 0
471 468 554 0
471 -468 -554 0
-471 468 -554 0
-471 -468 554 0
473 472 531 0
473 -472 -531 0
-473 472 -531 0
-473 -472 531 0
476 475 502 0
476 -475 -502 0
-476 475 -502 0
-476 -475 502 0
477 475 556 0
477 -475 -556 0
-477 475 -556 0
-477 -475 556 0
478 475 584 0
478 -475 -584 0
-478 475 -584 0
-478 -475 584 0
480 479 522 0
480 -479 -522 0
-480 479 -522 0
-480 -479 522 0
481 479 572 0
481 -479 -572 0
-481 479 -572 0
-481 -479 572 0
482 479 602 0
482 -479 -602 0
-482 479 -602 0
-482 -479 602 0
485 484 551 0
485 -484 -551 0
-485 484 -551 0
-485 -484 551 0
487 486 587 0
487 -486 -587 0
-487 486 -587 0
-487 -486 587 0
489 488 514 0
489 -488 -514 0
-489 488 -514 0
-489 -488 514 0
490 488 597 0
490 -488 -597 0
-490 488 -597 0
-490 -488 597 0
491 488 615 0
491 -488 -615 0
-491 488 -615 0
-491 -488 615 0
492 488 627 0
492 -488 -627 0
-492 488 -627 0
-492 -488 627 0
494 493 572 0
494 -493 -572 0
-494 493 -572 0
-494 -493 572 0
497 496 549 0
497 -496 -549 0
-497 496 -549 0
-497 -496 549 0
498 496 568 0
498 -496 -568 0
-498 496 -568 0
-498 -496 568 0
499 496 573 0
499 -496 -573 0
-499 496 -573 0
-499 -496 573 0
500 496 613 0
500 -496 -613 0
-500 496 -613 0
-500 -496 613 0
501 496 628 0
501 -496 -628 0
-501 496 -628 0
-501 -496 628 0
503 502 566 0
503 -502 -566 0
-503 502 -566 0
-503 -502 566 0
507 506 519 0
507 -506 -519 0
-507 506 -519 0
-507 -506 519 0
508 506 625 0
508 -506 -625 0
-508 506 -625 0
-508 -506 625 0
510 509 598 0
510 -509 -598 0
-510 509 -598 0
-510 -509 598 0
511 509 609 0
511 -509 -609 0
-511 509 -609 0
-511 -509 609 0
513 512 587 0
513 -512 -587 0
-513 512 -587 0
-513 -512 587 0
515 514 629 0
515 -514 -629 0
-515 514 -629 0
-515 -514 629 0
517 516 572 0
517 -516 -572 0
-517 516 -572 0
-517 -516 572 0
520 519 575 0
520 -519 -575 0
-520 519 -575 0
-520 -519 575 0
521 519 618 0
521 -519 -618 0
-521 519 -618 0
-521 -519 618 0
523 522 561 0
523 -522 -561 0
-523 522 -561 0
-523 -522 561 0
524 522 606 0
524 -522 -606 0
-524 522 -606 0
-524 -522 606 0
525 522 625 0
525 -522 -625 0
-525 522 -625 0
-525 -522 625 0
527 526 611 0
527 -526 -611 0
-527 526 -611 0
-527 -526 611 0
528 526 612 0
528 -526 -612 0
-528 526 -612 0
-528 -526 612 0
529 526 633 0
529 -526 -633 0
-529 526 -633 0
-529 -526 633 0
532 531 546 0
532 -531 -546 0
-532 531 -546 0
-532 -531 546 0
534 533 595 0
534 -533 -595 0
-534 533 -595 0
-534 -533 595 0
535 533 608 0
535 -533 -608 0
-535 533 -608 0
-535 -533 608 0
536 533 627 0
536 -533 -627 0
-536 533 -627 0
-536 -533 627 0
539 538 548 0
539 -538 -548 0
-539 538 -548 0
-539 -538 548 0
540 538 568 0
540 -538 -568 0
-540 538 -568 0
-540 -538 568 0
542 541 577 0
542 -541 -577 0
-542 541 -577 0
-542 -541 577 0
544 543 621 0
544 -543 -621 0
-544 543 -621 0
-544 -543 621 0
545 543 625 0
545 -543 -625 0
-545 543 -625 0
-545 -543 625 0
547 546 631 0
547 -546 -631 0
-547 546 -631 0
-547 -546 631 0
552 551 559 0
552 -551 -559 0
-552 551 -559 0
-552 -551 559 0
555 554 625 0
555 -554 -625 0
-555 554 -625 0
-555 -554 625 0
557 556 568 0
557 -556 -568 0
-557 556 -568 0
-557 -556 568 0
560 559 576 0
560 -559 -576 0
-560 559 -576 0
-560 -559 576 0
563 562 576 0
563 -562 -576 0
-563 562 -576 0
-563 -562 576 0
564 562 613 0
564 -562 -613 0
-564 562 -613 0
-564 -562 613 0
567 566 632 0
567 -566 -632 0
-567 566 -632 0
-567 -566 632 0
571 570 629 0
571 -570 -629 0
-571 570 -629 0
-571 -570 629 0
580 579 605 0
580 -579 -605 0
-580 579 -605 0
-580 -579 605 0
581 579 606 0
581 -579 -606 0
-581 579 -606 0
-581 -579 606 0
586 585 616 0
586 -585 -616 0
-586 585 -616 0
-586 -585 616 0
588 587 599 0
588 -587 -599 0
-588 587 -599 0
-588 -587 599 0
590 589 604 0
590 -589 -604 0
-590 589 -604 0
-590 -589 604 0
592 591 609 0
592 -591 -609 0
-592 591 -609 0
-592 -591 609 0
593 591 610 0
593 -591 -610 0
-593 591 -610 0
-593 -591 610 0
594 591 630 0
594 -591 -630 0
-594 591 -630 0
-594 -591 630 0
601 600 622 0
601 -600 -622 0
-601 600 -622 0
-601 -600 622 0
614 613 632 0
614 -613 -632 0
-614 613 -632 0
-614 -613 632 0
620 619 635 0
620 -619 -635 0
-620 619 -635 0
-620 -619 635 0
